certificates/rado_a10_c46_N31.cnf
c Rad2 upper bound instance: x1 + 10*x2 - x3 = 46, interval [1,31]
p cnf 31 192
1 5 0
-1 -5 0
1 6 15 0
-1 -6 -15 0
1 7 25 0
-1 -7 -25 0
2 5 6 0
-2 -5 -6 0
2 6 16 0
-2 -6 -16 0
2 7 26 0
-2 -7 -26 0
3 5 7 0
-3 -5 -7 0
3 6 17 0
-3 -6 -17 0
3 7 27 0
-3 -7 -27 0
4 5 8 0
-4 -5 -8 0
4 6 18 0
-4 -6 -18 0
4 7 28 0
-4 -7 -28 0
5 9 0
-5 -9 0
5 6 19 0
-5 -6 -19 0
5 7 29 0
-5 -7 -29 0
5 6 10 0
-5 -6 -10 0
6 20 0
-6 -20 0
6 7 30 0
-6 -7 -30 0
1 4 7 0
-1 -4 -7 0
5 7 11 0
-5 -7 -11 0
6 7 21 0
-6 -7 -21 0
7 31 0
-7 -31 0
2 4 8 0
-2 -4 -8 0
5 8 12 0
-5 -8 -12 0
6 8 22 0
-6 -8 -22 0
3 4 9 0
-3 -4 -9 0
5 9 13 0
-5 -9 -13 0
6 9 23 0
-6 -9 -23 0
4 10 0
-4 -10 0
5 10 14 0
-5 -10 -14 0
6 10 24 0
-6 -10 -24 0
4 5 11 0
-4 -5 -11 0
5 11 15 0
-5 -11 -15 0
6 11 25 0
-6 -11 -25 0
4 6 12 0
-4 -6 -12 0
5 12 16 0
-5 -12 -16 0
6 12 26 0
-6 -12 -26 0
4 7 13 0
-4 -7 -13 0
5 13 17 0
-5 -13 -17 0
6 13 27 0
-6 -13 -27 0
4 8 14 0
-4 -8 -14 0
5 14 18 0
-5 -14 -18 0
6 14 28 0
-6 -14 -28 0
4 9 15 0
-4 -9 -15 0
5 15 19 0
-5 -15 -19 0
6 15 29 0
-6 -15 -29 0
4 10 16 0
-4 -10 -16 0
5 16 20 0
-5 -16 -20 0
6 16 30 0
-6 -16 -30 0
1 3 17 0
-1 -3 -17 0
4 11 17 0
-4 -11 -17 0
5 17 21 0
-5 -17 -21 0
6 17 31 0
-6 -17 -31 0
2 3 18 0
-2 -3 -18 0
4 12 18 0
-4 -12 -18 0
5 18 22 0
-5 -18 -22 0
3 19 0
-3 -19 0
4 13 19 0
-4 -13 -19 0
5 19 23 0
-5 -19 -23 0
3 4 20 0
-3 -4 -20 0
4 14 20 0
-4 -14 -20 0
5 20 24 0
-5 -20 -24 0
3 5 21 0
-3 -5 -21 0
4 15 21 0
-4 -15 -21 0
5 21 25 0
-5 -21 -25 0
3 6 22 0
-3 -6 -22 0
4 16 22 0
-4 -16 -22 0
5 22 26 0
-5 -22 -26 0
3 7 23 0
-3 -7 -23 0
4 17 23 0
-4 -17 -23 0
5 23 27 0
-5 -23 -27 0
3 8 24 0
-3 -8 -24 0
4 18 24 0
-4 -18 -24 0
5 24 28 0
-5 -24 -28 0
3 9 25 0
-3 -9 -25 0
4 19 25 0
-4 -19 -25 0
5 25 29 0
-5 -25 -29 0
3 10 26 0
-3 -10 -26 0
4 20 26 0
-4 -20 -26 0
5 26 30 0
-5 -26 -30 0
1 2 27 0
-1 -2 -27 0
3 11 27 0
-3 -11 -27 0
4 21 27 0
-4 -21 -27 0
5 27 31 0
-5 -27 -31 0
2 28 0
-2 -28 0
3 12 28 0
-3 -12 -28 0
4 22 28 0
-4 -22 -28 0
2 3 29 0
-2 -3 -29 0
3 13 29 0
-3 -13 -29 0
4 23 29 0
-4 -23 -29 0
2 4 30 0
-2 -4 -30 0
3 14 30 0
-3 -14 -30 0
4 24 30 0
-4 -24 -30 0
2 5 31 0
-2 -5 -31 0
3 15 31 0
-3 -15 -31 0
4 25 31 0
-4 -25 -31 0
