certificates/rado_a10_c46_N31.drat
-26 -30 7 0
-30 7 0
d -26 -30 7 0
26 7 0
-2 -31 0
-31 0
7 0
2 0
-28 0
-26 0
-5 0
1 0
9 0
22 0
30 0
27 0
24 0
0
